(declare-fun e () String)
(declare-fun g () String)
(declare-fun b () String)
(declare-fun d () String)
(declare-fun f () String)
(declare-fun a () String)
(declare-fun h () String)
(assert (= (str.++ "a" a b) (str.++ f "h")))
(assert (= (str.++ "b" b) (str.++ a "c" d "e" g)))
(assert (= (str.++ f "bf" e "b") h))

(check-sat)
